Maximize
 0
Subject To
 epc_0!1: -50.98806293861613 y_1!1_2!1 +99.15020604255659 y_1!2_2!1 +43.41250003902786 y_1!3_2!1 -91.45792841376152 y_1!4_2!1 +42.283529273622264 y_1!1_2!2 +58.38317016987071 y_1!2_2!2 -20.786288751827755 y_1!3_2!2 -42.610623866986245 y_1!4_2!2 +86.0576564590848 y_1!1_2!3 +4.624245234245777 y_1!2_2!3 -27.511809864158664 y_1!3_2!3 +17.93432867202202 y_1!4_2!3 +72.65066219427777 y_1!1_2!4 +74.40843195070269 y_1!2_2!4 +61.263070463387805 y_1!3_2!4 +90.20453104780799 y_1!4_2!4 + lambda_0!1 - mu_0 = 0
 epc_0!2: +59.34063519364713 y_1!1_2!1 -81.16029833042214 y_1!2_2!1 -19.595840023454713 y_1!3_2!1 +17.003141484831346 y_1!4_2!1 -66.97775054550988 y_1!1_2!2 +74.73731831950005 y_1!2_2!2 +99.99549366234638 y_1!3_2!2 +25.041909384390152 y_1!4_2!2 +68.18797495631077 y_1!1_2!3 -69.47487302810458 y_1!2_2!3 -6.854240899246534 y_1!3_2!3 -31.659229050686676 y_1!4_2!3 +19.001028574919474 y_1!1_2!4 +55.9578822852327 y_1!2_2!4 +37.25561572469394 y_1!3_2!4 +26.356605104997 y_1!4_2!4 + lambda_0!2 - mu_0 = 0
 epc_0!3: -8.56852408773851 y_1!1_2!1 -80.7614626481705 y_1!2_2!1 -5.006099494803081 y_1!3_2!1 +26.822847146804136 y_1!4_2!1 +23.484682780836508 y_1!1_2!2 -82.27600373347514 y_1!2_2!2 +77.12364632055932 y_1!3_2!2 -35.608187390832754 y_1!4_2!2 +96.7108444748184 y_1!1_2!3 -89.77912982108951 y_1!2_2!3 +60.90648892514915 y_1!3_2!3 +87.1001840051965 y_1!4_2!3 +21.511368178524435 y_1!1_2!4 +72.13530020993272 y_1!2_2!4 +91.59150328157949 y_1!3_2!4 +23.386446926303535 y_1!4_2!4 + lambda_0!3 - mu_0 = 0
 epc_0!4: -68.67623818723645 y_1!1_2!1 -44.89884835028322 y_1!2_2!1 +16.62205052289778 y_1!3_2!1 -4.140697891749753 y_1!4_2!1 +37.78304976792242 y_1!1_2!2 +87.22955215116113 y_1!2_2!2 -2.4138688316354973 y_1!3_2!2 +67.26561472786366 y_1!4_2!2 -55.92354359612883 y_1!1_2!3 +42.47759870982125 y_1!2_2!3 -57.66015147524346 y_1!3_2!3 +80.21844287191283 y_1!4_2!3 +5.274240070115326 y_1!1_2!4 -48.13619823232293 y_1!2_2!4 +79.45144611821661 y_1!3_2!4 +47.879154348419235 y_1!4_2!4 + lambda_0!4 - mu_0 = 0
 dc_0: x_0!1 + x_0!2 + x_0!3 + x_0!4 = 1
 bc_0!1: lambda_0!1 +299.3181053101647 x_0!1 <= 299.3181053101647
 bc_0!2: lambda_0!2 +299.3181053101647 x_0!2 <= 299.3181053101647
 bc_0!3: lambda_0!3 +299.3181053101647 x_0!3 <= 299.3181053101647
 bc_0!4: lambda_0!4 +299.3181053101647 x_0!4 <= 299.3181053101647
 sum_0!1: y_1!1_2!1 - x_1!1 - x_2!1 >= -1
 idk_0!1!1: y_1!1_2!1 - x_1!1 <= 0
 idk_0!1!2: y_1!1_2!1 - x_2!1 <= 0
 sum_0!2: y_1!2_2!1 - x_1!2 - x_2!1 >= -1
 idk_0!2!1: y_1!2_2!1 - x_1!2 <= 0
 idk_0!2!2: y_1!2_2!1 - x_2!1 <= 0
 sum_0!3: y_1!3_2!1 - x_1!3 - x_2!1 >= -1
 idk_0!3!1: y_1!3_2!1 - x_1!3 <= 0
 idk_0!3!2: y_1!3_2!1 - x_2!1 <= 0
 sum_0!4: y_1!4_2!1 - x_1!4 - x_2!1 >= -1
 idk_0!4!1: y_1!4_2!1 - x_1!4 <= 0
 idk_0!4!2: y_1!4_2!1 - x_2!1 <= 0
 sum_0!5: y_1!1_2!2 - x_1!1 - x_2!2 >= -1
 idk_0!5!1: y_1!1_2!2 - x_1!1 <= 0
 idk_0!5!2: y_1!1_2!2 - x_2!2 <= 0
 sum_0!6: y_1!2_2!2 - x_1!2 - x_2!2 >= -1
 idk_0!6!1: y_1!2_2!2 - x_1!2 <= 0
 idk_0!6!2: y_1!2_2!2 - x_2!2 <= 0
 sum_0!7: y_1!3_2!2 - x_1!3 - x_2!2 >= -1
 idk_0!7!1: y_1!3_2!2 - x_1!3 <= 0
 idk_0!7!2: y_1!3_2!2 - x_2!2 <= 0
 sum_0!8: y_1!4_2!2 - x_1!4 - x_2!2 >= -1
 idk_0!8!1: y_1!4_2!2 - x_1!4 <= 0
 idk_0!8!2: y_1!4_2!2 - x_2!2 <= 0
 sum_0!9: y_1!1_2!3 - x_1!1 - x_2!3 >= -1
 idk_0!9!1: y_1!1_2!3 - x_1!1 <= 0
 idk_0!9!2: y_1!1_2!3 - x_2!3 <= 0
 sum_0!10: y_1!2_2!3 - x_1!2 - x_2!3 >= -1
 idk_0!10!1: y_1!2_2!3 - x_1!2 <= 0
 idk_0!10!2: y_1!2_2!3 - x_2!3 <= 0
 sum_0!11: y_1!3_2!3 - x_1!3 - x_2!3 >= -1
 idk_0!11!1: y_1!3_2!3 - x_1!3 <= 0
 idk_0!11!2: y_1!3_2!3 - x_2!3 <= 0
 sum_0!12: y_1!4_2!3 - x_1!4 - x_2!3 >= -1
 idk_0!12!1: y_1!4_2!3 - x_1!4 <= 0
 idk_0!12!2: y_1!4_2!3 - x_2!3 <= 0
 sum_0!13: y_1!1_2!4 - x_1!1 - x_2!4 >= -1
 idk_0!13!1: y_1!1_2!4 - x_1!1 <= 0
 idk_0!13!2: y_1!1_2!4 - x_2!4 <= 0
 sum_0!14: y_1!2_2!4 - x_1!2 - x_2!4 >= -1
 idk_0!14!1: y_1!2_2!4 - x_1!2 <= 0
 idk_0!14!2: y_1!2_2!4 - x_2!4 <= 0
 sum_0!15: y_1!3_2!4 - x_1!3 - x_2!4 >= -1
 idk_0!15!1: y_1!3_2!4 - x_1!3 <= 0
 idk_0!15!2: y_1!3_2!4 - x_2!4 <= 0
 sum_0!16: y_1!4_2!4 - x_1!4 - x_2!4 >= -1
 idk_0!16!1: y_1!4_2!4 - x_1!4 <= 0
 idk_0!16!2: y_1!4_2!4 - x_2!4 <= 0
 epc_1!1: -42.08928514482901 y_0!1_2!1 -66.45704470337995 y_0!2_2!1 +30.651608892604287 y_0!3_2!1 -77.01596047249203 y_0!4_2!1 +47.60216876444022 y_0!1_2!2 +78.92586940129826 y_0!2_2!2 -45.99136338339864 y_0!3_2!2 +4.646519912872222 y_0!4_2!2 -85.98364790780064 y_0!1_2!3 -45.31653809492957 y_0!2_2!3 +64.30078381848037 y_0!3_2!3 -95.30149374113628 y_0!4_2!3 +99.75320454609991 y_0!1_2!4 +69.06677540987053 y_0!2_2!4 +38.30367572857736 y_0!3_2!4 -13.832427113887391 y_0!4_2!4 + lambda_1!1 - mu_1 = 0
 epc_1!2: -44.6074101824095 y_0!1_2!1 -48.86348428052474 y_0!2_2!1 +79.22501557101432 y_0!3_2!1 -35.65699414818782 y_0!4_2!1 -12.662643331847718 y_0!1_2!2 -62.30686363548348 y_0!2_2!2 +42.728158765347246 y_0!3_2!2 +38.76581421788768 y_0!4_2!2 -39.87397459896271 y_0!1_2!3 +69.52569752396883 y_0!2_2!3 +68.7829220712359 y_0!3_2!3 +59.58202184235927 y_0!4_2!3 +34.05408114757839 y_0!1_2!4 +81.33388222659812 y_0!2_2!4 +46.80276126868446 y_0!3_2!4 -33.09375117502577 y_0!4_2!4 + lambda_1!2 - mu_1 = 0
 epc_1!3: -75.57556510314947 y_0!1_2!1 +73.86319729490847 y_0!2_2!1 +78.26425975968607 y_0!3_2!1 -4.978797878029951 y_0!4_2!1 -84.40741911278056 y_0!1_2!2 -7.905518725052545 y_0!2_2!2 +85.22241019554232 y_0!3_2!2 +68.34461101965229 y_0!4_2!2 -67.23696732130958 y_0!1_2!3 -85.76028359787556 y_0!2_2!3 +99.7102596328871 y_0!3_2!3 +14.402749080368139 y_0!4_2!3 +87.75973402828546 y_0!1_2!4 +26.33545597544989 y_0!2_2!4 -82.46977331513494 y_0!3_2!4 +18.357986092988128 y_0!4_2!4 + lambda_1!3 - mu_1 = 0
 epc_1!4: +21.425197361731634 y_0!1_2!1 +89.84618301225737 y_0!2_2!1 +28.808685467219902 y_0!3_2!1 +37.38809418300514 y_0!4_2!1 -85.36513924871916 y_0!1_2!2 -97.00148127397861 y_0!2_2!2 -49.335901248153746 y_0!3_2!2 +25.484212321746554 y_0!4_2!2 -43.93553425798711 y_0!1_2!3 +53.84014267142763 y_0!2_2!3 -30.298045470928344 y_0!3_2!3 +17.981833605935307 y_0!4_2!3 +63.81000818303406 y_0!1_2!4 +83.2582120236305 y_0!2_2!4 +56.48635083236701 y_0!3_2!4 +15.700781077073444 y_0!4_2!4 + lambda_1!4 - mu_1 = 0
 dc_1: x_1!1 + x_1!2 + x_1!3 + x_1!4 = 1
 bc_1!1: lambda_1!1 +299.3181053101647 x_1!1 <= 299.3181053101647
 bc_1!2: lambda_1!2 +299.3181053101647 x_1!2 <= 299.3181053101647
 bc_1!3: lambda_1!3 +299.3181053101647 x_1!3 <= 299.3181053101647
 bc_1!4: lambda_1!4 +299.3181053101647 x_1!4 <= 299.3181053101647
 sum_1!1: y_0!1_2!1 - x_0!1 - x_2!1 >= -1
 idk_1!1!0: y_0!1_2!1 - x_0!1 <= 0
 idk_1!1!2: y_0!1_2!1 - x_2!1 <= 0
 sum_1!2: y_0!2_2!1 - x_0!2 - x_2!1 >= -1
 idk_1!2!0: y_0!2_2!1 - x_0!2 <= 0
 idk_1!2!2: y_0!2_2!1 - x_2!1 <= 0
 sum_1!3: y_0!3_2!1 - x_0!3 - x_2!1 >= -1
 idk_1!3!0: y_0!3_2!1 - x_0!3 <= 0
 idk_1!3!2: y_0!3_2!1 - x_2!1 <= 0
 sum_1!4: y_0!4_2!1 - x_0!4 - x_2!1 >= -1
 idk_1!4!0: y_0!4_2!1 - x_0!4 <= 0
 idk_1!4!2: y_0!4_2!1 - x_2!1 <= 0
 sum_1!5: y_0!1_2!2 - x_0!1 - x_2!2 >= -1
 idk_1!5!0: y_0!1_2!2 - x_0!1 <= 0
 idk_1!5!2: y_0!1_2!2 - x_2!2 <= 0
 sum_1!6: y_0!2_2!2 - x_0!2 - x_2!2 >= -1
 idk_1!6!0: y_0!2_2!2 - x_0!2 <= 0
 idk_1!6!2: y_0!2_2!2 - x_2!2 <= 0
 sum_1!7: y_0!3_2!2 - x_0!3 - x_2!2 >= -1
 idk_1!7!0: y_0!3_2!2 - x_0!3 <= 0
 idk_1!7!2: y_0!3_2!2 - x_2!2 <= 0
 sum_1!8: y_0!4_2!2 - x_0!4 - x_2!2 >= -1
 idk_1!8!0: y_0!4_2!2 - x_0!4 <= 0
 idk_1!8!2: y_0!4_2!2 - x_2!2 <= 0
 sum_1!9: y_0!1_2!3 - x_0!1 - x_2!3 >= -1
 idk_1!9!0: y_0!1_2!3 - x_0!1 <= 0
 idk_1!9!2: y_0!1_2!3 - x_2!3 <= 0
 sum_1!10: y_0!2_2!3 - x_0!2 - x_2!3 >= -1
 idk_1!10!0: y_0!2_2!3 - x_0!2 <= 0
 idk_1!10!2: y_0!2_2!3 - x_2!3 <= 0
 sum_1!11: y_0!3_2!3 - x_0!3 - x_2!3 >= -1
 idk_1!11!0: y_0!3_2!3 - x_0!3 <= 0
 idk_1!11!2: y_0!3_2!3 - x_2!3 <= 0
 sum_1!12: y_0!4_2!3 - x_0!4 - x_2!3 >= -1
 idk_1!12!0: y_0!4_2!3 - x_0!4 <= 0
 idk_1!12!2: y_0!4_2!3 - x_2!3 <= 0
 sum_1!13: y_0!1_2!4 - x_0!1 - x_2!4 >= -1
 idk_1!13!0: y_0!1_2!4 - x_0!1 <= 0
 idk_1!13!2: y_0!1_2!4 - x_2!4 <= 0
 sum_1!14: y_0!2_2!4 - x_0!2 - x_2!4 >= -1
 idk_1!14!0: y_0!2_2!4 - x_0!2 <= 0
 idk_1!14!2: y_0!2_2!4 - x_2!4 <= 0
 sum_1!15: y_0!3_2!4 - x_0!3 - x_2!4 >= -1
 idk_1!15!0: y_0!3_2!4 - x_0!3 <= 0
 idk_1!15!2: y_0!3_2!4 - x_2!4 <= 0
 sum_1!16: y_0!4_2!4 - x_0!4 - x_2!4 >= -1
 idk_1!16!0: y_0!4_2!4 - x_0!4 <= 0
 idk_1!16!2: y_0!4_2!4 - x_2!4 <= 0
 epc_2!1: -86.09659298049617 y_0!1_1!1 +31.88284201916855 y_0!2_1!1 +54.960190817226646 y_0!3_1!1 +39.341386425539724 y_0!4_1!1 +14.892402338392856 y_0!1_1!2 -64.35327679847771 y_0!2_1!2 -62.18811671683866 y_0!3_1!2 -4.828796506686061 y_0!4_1!2 -45.37120317055774 y_0!1_1!3 +99.45725761632579 y_0!2_1!3 +43.19318954731287 y_0!3_1!3 -81.52161924958588 y_0!4_1!3 -35.200768118024854 y_0!1_1!4 -29.864024337286367 y_0!2_1!4 -23.884243162359 y_0!3_1!4 -97.26979832799836 y_0!4_1!4 + lambda_2!1 - mu_2 = 0
 epc_2!2: +36.090930624707 y_0!1_1!1 +34.566370219864694 y_0!2_1!1 -28.272254194895822 y_0!3_1!1 -17.771450695113302 y_0!4_1!1 +30.348498982455908 y_0!1_1!2 +45.8142641816365 y_0!2_1!2 -91.05674864254772 y_0!3_1!2 -63.60112150296939 y_0!4_1!2 +27.68733994512867 y_0!1_1!3 +28.380493262144682 y_0!2_1!3 -96.6510720160847 y_0!3_1!3 +6.716724722178284 y_0!4_1!3 -87.90248378843741 y_0!1_1!4 +25.348280652409855 y_0!2_1!4 +27.550696800757862 y_0!3_1!4 +76.6318091241846 y_0!4_1!4 + lambda_2!2 - mu_2 = 0
 epc_2!3: +30.517359782894772 y_0!1_1!1 -69.92937764402076 y_0!2_1!1 +47.94368306074483 y_0!3_1!1 +79.10773490129566 y_0!4_1!1 +60.55138923341397 y_0!1_1!2 +43.675708002681944 y_0!2_1!2 -23.541153987240875 y_0!3_1!2 +29.402923176207025 y_0!4_1!2 -9.047647023346215 y_0!1_1!3 +17.05131568899054 y_0!2_1!3 -85.83994481375234 y_0!3_1!3 -67.52362372249678 y_0!4_1!3 -43.31731257223872 y_0!1_1!4 -27.89814352911388 y_0!2_1!4 -89.36422450046504 y_0!3_1!4 +84.9096716200354 y_0!4_1!4 + lambda_2!3 - mu_2 = 0
 epc_2!4: -23.18423052629103 y_0!1_1!1 +51.95455488016265 y_0!2_1!1 -21.05032745793227 y_0!3_1!1 -19.505758627098572 y_0!4_1!1 +18.732863723876633 y_0!1_1!2 +23.424157109387096 y_0!2_1!2 -9.515064995210949 y_0!3_1!2 -63.358978734014485 y_0!4_1!2 +56.01684772499874 y_0!1_1!3 +47.428254330564386 y_0!2_1!3 -72.66270721984336 y_0!3_1!3 +85.52723201306344 y_0!4_1!3 -99.86084769383888 y_0!1_1!4 -55.82181163140088 y_0!2_1!4 +91.98212316561572 y_0!3_1!4 -80.59712232063241 y_0!4_1!4 + lambda_2!4 - mu_2 = 0
 dc_2: x_2!1 + x_2!2 + x_2!3 + x_2!4 = 1
 bc_2!1: lambda_2!1 +299.3181053101647 x_2!1 <= 299.3181053101647
 bc_2!2: lambda_2!2 +299.3181053101647 x_2!2 <= 299.3181053101647
 bc_2!3: lambda_2!3 +299.3181053101647 x_2!3 <= 299.3181053101647
 bc_2!4: lambda_2!4 +299.3181053101647 x_2!4 <= 299.3181053101647
 sum_2!1: y_0!1_1!1 - x_0!1 - x_1!1 >= -1
 idk_2!1!0: y_0!1_1!1 - x_0!1 <= 0
 idk_2!1!1: y_0!1_1!1 - x_1!1 <= 0
 sum_2!2: y_0!2_1!1 - x_0!2 - x_1!1 >= -1
 idk_2!2!0: y_0!2_1!1 - x_0!2 <= 0
 idk_2!2!1: y_0!2_1!1 - x_1!1 <= 0
 sum_2!3: y_0!3_1!1 - x_0!3 - x_1!1 >= -1
 idk_2!3!0: y_0!3_1!1 - x_0!3 <= 0
 idk_2!3!1: y_0!3_1!1 - x_1!1 <= 0
 sum_2!4: y_0!4_1!1 - x_0!4 - x_1!1 >= -1
 idk_2!4!0: y_0!4_1!1 - x_0!4 <= 0
 idk_2!4!1: y_0!4_1!1 - x_1!1 <= 0
 sum_2!5: y_0!1_1!2 - x_0!1 - x_1!2 >= -1
 idk_2!5!0: y_0!1_1!2 - x_0!1 <= 0
 idk_2!5!1: y_0!1_1!2 - x_1!2 <= 0
 sum_2!6: y_0!2_1!2 - x_0!2 - x_1!2 >= -1
 idk_2!6!0: y_0!2_1!2 - x_0!2 <= 0
 idk_2!6!1: y_0!2_1!2 - x_1!2 <= 0
 sum_2!7: y_0!3_1!2 - x_0!3 - x_1!2 >= -1
 idk_2!7!0: y_0!3_1!2 - x_0!3 <= 0
 idk_2!7!1: y_0!3_1!2 - x_1!2 <= 0
 sum_2!8: y_0!4_1!2 - x_0!4 - x_1!2 >= -1
 idk_2!8!0: y_0!4_1!2 - x_0!4 <= 0
 idk_2!8!1: y_0!4_1!2 - x_1!2 <= 0
 sum_2!9: y_0!1_1!3 - x_0!1 - x_1!3 >= -1
 idk_2!9!0: y_0!1_1!3 - x_0!1 <= 0
 idk_2!9!1: y_0!1_1!3 - x_1!3 <= 0
 sum_2!10: y_0!2_1!3 - x_0!2 - x_1!3 >= -1
 idk_2!10!0: y_0!2_1!3 - x_0!2 <= 0
 idk_2!10!1: y_0!2_1!3 - x_1!3 <= 0
 sum_2!11: y_0!3_1!3 - x_0!3 - x_1!3 >= -1
 idk_2!11!0: y_0!3_1!3 - x_0!3 <= 0
 idk_2!11!1: y_0!3_1!3 - x_1!3 <= 0
 sum_2!12: y_0!4_1!3 - x_0!4 - x_1!3 >= -1
 idk_2!12!0: y_0!4_1!3 - x_0!4 <= 0
 idk_2!12!1: y_0!4_1!3 - x_1!3 <= 0
 sum_2!13: y_0!1_1!4 - x_0!1 - x_1!4 >= -1
 idk_2!13!0: y_0!1_1!4 - x_0!1 <= 0
 idk_2!13!1: y_0!1_1!4 - x_1!4 <= 0
 sum_2!14: y_0!2_1!4 - x_0!2 - x_1!4 >= -1
 idk_2!14!0: y_0!2_1!4 - x_0!2 <= 0
 idk_2!14!1: y_0!2_1!4 - x_1!4 <= 0
 sum_2!15: y_0!3_1!4 - x_0!3 - x_1!4 >= -1
 idk_2!15!0: y_0!3_1!4 - x_0!3 <= 0
 idk_2!15!1: y_0!3_1!4 - x_1!4 <= 0
 sum_2!16: y_0!4_1!4 - x_0!4 - x_1!4 >= -1
 idk_2!16!0: y_0!4_1!4 - x_0!4 <= 0
 idk_2!16!1: y_0!4_1!4 - x_1!4 <= 0
Bounds
 mu_0 free
 mu_1 free
 mu_2 free
Binary
 x_0!1 x_0!2 x_0!3 x_0!4 x_1!1 x_1!2 x_1!3 x_1!4 x_2!1 x_2!2 x_2!3 x_2!4
End
